749.66 0
0 3 44 32 50 18 55 25 9 39 12 0
0 74 28 61 22 64 42 41 43 1 73 62 0
0 51 16 49 24 56 23 63 33 6 0
0 26 58 10 38 65 31 72 40 17 0
0 27 57 15 37 20 70 60 71 36 69 21 2 0
0 67 46 8 19 54 13 52 34 0
0 75 68 30 48 47 5 29 45 4 0
0 7 53 11 66 59 14 35 0
